0 2576
1 2571
2 2484
3 2416
4 2416
5 2313
6 2313
7 2307
8 1995
9 1995
10 1995
11 1959
12 1936
13 1936
14 1936
15 1878
16 1878
17 1878
18 1818
19 1749
20 1749
21 1749
22 1749
23 1749
24 1731
25 1731
26 1731
27 1697
28 1663
29 1663
30 1663
31 1663
32 1623
33 1623
34 1623
35 1575
36 1543
37 1543
38 1526
39 1484
40 1484
41 1484
42 1484
43 1484
44 1484
45 1484
46 1484
47 1484
48 1447
49 1447
50 1447
51 1407
52 1407
53 1359
54 1359
55 1359
56 1359
57 1355
58 1355
59 1355
60 1355
61 1355
62 1328
63 1328
64 1324
65 1322
66 1322
67 1322
68 1322
69 1322
70 1322
71 1322
72 1322
73 1322
74 1322
75 1309
76 1309
77 1302
78 1302
79 1302
80 1299
81 1281
82 1281
83 1280
84 1280
85 1280
86 1277
87 1277
88 1277
89 1277
90 1277
91 1277
92 1266
93 1266
94 1266
95 1266
96 1266
97 1266
98 1266
99 1266
100 1266
101 1259
102 1259
103 1259
104 1259
105 1256
106 1256
107 1256
108 1256
109 1256
110 1256
111 1245
112 1245
113 1245
114 1245
115 1245
116 1245
117 1245
118 1245
119 1245
120 1237
121 1237
122 1237
123 1237
124 1235
125 1235
126 1235
127 1235
128 1235
129 1235
130 1221
131 1221
132 1221
133 1221
134 1221
135 1221
136 1221
137 1221
138 1221
139 1221
140 1221
141 1216
142 1216
143 1216
144 1216
145 1216
146 1216
147 1216
148 1216
149 1216
150 1200
151 1200
152 1200
153 1200
154 1200
155 1196
156 1196
157 1196
158 1180
159 1153
160 1153
161 1153
162 1153
163 1153
164 1153
165 1153
166 1153
167 1153
168 1153
169 1153
170 1153
171 1153
172 1153
173 1153
174 1153
175 1153
176 1152
177 1152
178 1124
179 1124
180 1112
181 1112
182 1112
183 1112
184 1112
185 1112
186 1112
187 1112
188 1112
189 1112
190 1112
191 1112
192 1112
193 1112
194 1112
195 1112
196 1112
197 1112
198 1112
199 1111
200 1093
201 1093
202 1093
203 1093
204 1085
205 1085
206 1085
207 1085
208 1085
209 1085
210 1085
211 1085
212 1085
213 1078
214 1078
215 1078
216 1076
217 1076
218 1076
219 1069
220 1069
221 1069
222 1069
223 1069
224 1069
225 1069
226 1069
227 1069
228 1069
229 1069
230 1069
231 1069
232 1069
233 1069
234 1069
235 1069
236 1069
237 1069
238 1069
239 1069
240 1069
241 1069
242 1069
243 1069
244 1069
245 1069
246 1069
247 1069
248 1069
249 1069
250 1069
251 1069
252 1069
253 1069
254 1069
255 1069
256 1060
257 1060
258 1060
259 1060
260 1060
261 1060
262 1060
263 1060
264 1060
265 1060
266 1060
267 1060
268 1060
269 1060
270 1060
271 1060
272 1060
273 1060
274 1060
275 1060
276 1060
277 1060
278 1060
279 1058
280 1058
281 1058
282 1047
283 1047
284 1047
285 1047
286 1047
287 1047
288 1047
289 1047
290 1047
291 1047
292 1047
293 1047
294 1047
295 1047
296 1045
297 1045
298 1045
299 1045
300 1045
301 1045
302 1045
303 1045
304 1045
305 1045
306 1045
307 1045
308 1045
309 1045
310 1045
311 1045
312 1045
313 1045
314 1045
315 1045
316 1045
317 1045
318 1041
319 1041
320 1041
321 1041
322 1041
323 1041
324 1041
325 1041
326 1041
327 1041
328 1041
329 1041
330 1041
331 1041
332 1041
333 1041
334 1036
335 1036
336 1036
337 1036
338 1036
339 1036
340 1036
341 1036
342 1036
343 1036
344 1036
345 1036
346 1036
347 1036
348 1036
349 1036
350 1036
351 1036
352 1036
353 1036
354 1036
355 1036
356 1036
357 1036
358 1036
359 1036
360 1036
361 1036
362 1036
363 1036
364 1036
365 1036
366 1036
367 1036
368 1036
369 1022
370 1022
371 1022
372 1022
373 1022
374 1022
375 1022
376 1022
377 1022
378 1022
379 1022
380 1022
381 1022
382 1022
383 1022
384 1022
385 1022
386 1022
387 1022
388 1022
389 1022
390 1022
391 1022
392 1022
393 1022
394 1022
395 1022
396 1022
397 1022
398 1022
399 1014
400 1014
401 1014
402 1004
403 1004
404 1004
405 1004
406 1004
407 1004
408 1004
409 1004
410 1004
411 1004
412 1004
413 1004
414 1004
415 1004
416 1004
417 1004
418 1004
419 1004
420 1004
421 1004
422 1004
423 1004
424 1004
425 1004
426 1004
427 1004
428 1004
429 1004
430 1004
431 1004
432 1004
433 1004
434 1004
435 1004
436 1004
437 1004
438 1004
439 1004
440 1004
441 1004
442 1004
443 1004
444 1004
445 1004
446 994
447 994
448 994
449 994
450 994
451 994
452 994
453 994
454 994
455 994
456 994
457 994
458 994
459 994
460 993
461 993
462 993
463 993
464 993
465 993
466 993
467 993
468 993
469 993
470 993
471 993
472 993
473 993
474 993
475 993
476 993
477 993
478 993
479 993
480 993
481 993
482 993
483 993
484 993
485 993
486 993
487 993
488 993
489 993
490 993
491 993
492 993
493 993
494 993
495 993
496 993
497 993
498 993
499 993
500 993
501 993
502 993
503 993
504 993
505 993
506 993
507 993
508 993
509 993
510 993
511 993
512 993
513 993
514 993
515 993
516 993
517 993
518 993
519 993
520 993
521 993
522 993
523 993
524 993
525 993
526 993
527 993
528 993
529 993
530 993
531 993
532 993
533 993
534 993
535 993
536 993
537 993
538 993
539 993
540 993
541 993
542 993
543 993
544 993
545 993
546 993
547 993
548 993
549 993
550 993
551 993
552 993
553 993
554 993
555 993
556 993
557 993
558 993
559 993
560 993
561 993
562 993
563 993
564 993
565 993
566 993
567 993
568 993
569 993
570 993
571 993
572 993
573 993
574 993
575 993
576 993
577 993
578 993
579 993
580 993
581 993
582 993
583 993
584 993
585 993
586 993
587 993
588 993
589 993
590 993
591 993
592 993
593 993
594 993
595 993
596 993
597 993
598 993
599 993
600 993
601 993
602 993
603 993
604 993
605 993
606 993
607 993
608 993
609 993
610 993
611 993
612 993
613 993
614 993
615 993
616 993
617 993
618 993
619 993
620 993
621 993
622 993
623 993
624 993
625 993
626 993
627 993
628 993
629 993
630 993
631 993
632 993
633 993
634 993
635 993
636 993
637 993
638 993
639 993
640 993
641 993
642 993
643 993
644 993
645 993
646 993
647 993
648 993
649 993
650 993
651 993
652 993
653 993
654 993
655 993
656 993
657 993
658 993
659 993
660 993
661 993
662 993
663 993
664 993
665 993
666 993
667 993
668 993
669 993
670 993
671 993
672 993
673 993
674 993
675 993
676 993
677 993
678 993
679 993
680 993
681 993
682 993
683 993
684 993
685 993
686 993
687 993
688 993
689 993
690 993
691 993
692 993
693 993
694 993
695 993
696 993
697 993
698 993
699 993
700 993
701 993
702 993
703 993
704 993
705 993
706 993
707 993
708 993
709 993
710 993
711 993
712 993
713 993
714 993
715 993
716 993
717 993
718 993
719 993
720 993
721 993
722 993
723 993
724 993
725 993
726 993
727 993
728 993
729 993
730 993
731 993
732 993
733 993
734 993
735 993
736 993
737 993
738 993
739 993
740 993
741 993
742 993
743 993
744 993
745 993
746 993
747 993
748 993
749 993
750 993
751 993
752 993
753 993
754 993
755 993
756 993
757 993
758 993
759 993
760 993
761 993
762 993
763 993
764 993
765 993
766 993
767 993
768 993
769 993
770 993
771 993
772 993
773 993
774 993
775 993
776 993
777 993
778 993
779 993
780 993
781 993
782 993
783 993
784 993
785 993
786 993
787 993
788 993
789 993
790 993
791 993
792 993
793 993
794 993
795 993
796 993
797 993
798 993
799 993
800 993
801 993
802 993
803 993
804 993
805 993
806 993
807 993
808 993
809 993
810 993
811 993
812 993
813 993
814 993
815 993
816 993
817 993
818 993
819 993
820 993
821 993
822 993
823 993
824 993
825 993
826 993
827 993
828 993
829 993
830 993
831 993
832 993
833 993
834 993
835 993
836 993
837 993
838 993
839 993
840 993
841 993
842 993
843 993
844 993
845 993
846 993
847 993
848 993
849 993
850 993
851 993
852 993
853 993
854 993
855 993
856 993
857 993
858 993
859 993
860 993
861 993
862 993
863 993
864 993
865 993
866 993
867 993
868 993
869 993
870 993
871 993
872 993
873 993
874 993
875 993
876 993
877 993
878 993
879 993
880 993
881 993
882 993
883 993
884 993
885 993
886 993
887 993
888 993
889 993
890 993
891 993
892 993
893 993
894 993
895 993
896 993
897 993
898 993
899 993
900 993
901 993
902 993
903 993
904 993
905 993
906 993
907 993
908 993
909 993
910 993
911 993
912 993
913 993
914 993
915 993
916 993
917 993
918 993
919 993
920 993
921 993
922 993
923 993
924 993
925 993
926 993
927 993
928 993
929 993
930 993
931 993
932 993
933 993
934 993
935 993
936 993
937 993
938 993
939 993
940 993
941 993
942 993
943 993
944 993
945 993
946 993
947 993
948 993
949 993
950 993
951 993
952 993
953 993
954 993
955 993
956 993
957 993
958 993
959 993
960 993
961 993
962 993
963 993
964 993
965 993
966 993
967 993
968 993
969 993
970 993
971 993
972 993
973 993
974 993
975 993
976 993
977 993
978 993
979 993
980 993
981 993
982 993
983 993
984 993
985 993
986 993
987 993
988 993
989 993
990 993
991 993
992 993
993 993
994 993
995 993
996 993
997 993
998 993
999 993
Best: [[17,2,8,14,5,12,15],
       [31,27,18,20,32,22,13],
       [6,26,11,16,10,23,30,28],
       [21,25,19,9,29,24,3,4,7]], fitness: 993
